
Gurobi 11.0.3 (linux64) logging started Fri Nov 22 15:35:14 2024

Set parameter LogFile to value "/home/yihong/Coding/OR_SUC/SUC_results_bigM100000_thread4/case24_ieee_rts_theta0.5_epsilon0.025_gurobi_seed720000_num_gen100_N_WDR100_load_scaling_factor1_proposed_T20quadra_cost.txt"
Set parameter TimeLimit to value 3600
Gurobi Optimizer version 11.0.3 build v11.0.3rc0 (linux64 - "Ubuntu 20.04.6 LTS")

CPU model: AMD EPYC 7532 32-Core Processor, instruction set [SSE2|AVX|AVX2]
Thread count: 64 physical cores, 128 logical processors, using up to 4 threads

Optimize a model with 43202 rows, 24901 columns and 590362 nonzeros
Model fingerprint: 0xcbbd647b
Model has 2000 quadratic constraints
Variable types: 22901 continuous, 2000 integer (2000 binary)
Coefficient statistics:
  Matrix range     [3e-04, 2e+03]
  QMatrix range    [2e-03, 8e-03]
  QLMatrix range   [1e-01, 6e+01]
  Objective range  [1e+00, 1e+00]
  Bounds range     [1e+00, 1e+00]
  RHS range        [1e+00, 9e+03]
Presolve removed 35004 rows and 10802 columns
Presolve time: 0.23s
Presolved: 8198 rows, 14099 columns, 54277 nonzeros
Presolved model has 2000 quadratic constraint(s)
Variable types: 12099 continuous, 2000 integer (2000 binary)

Root relaxation: objective 6.889490e+04, 6764 iterations, 0.16 seconds (0.21 work units)

    Nodes    |    Current Node    |     Objective Bounds      |     Work
 Expl Unexpl |  Obj  Depth IntInf | Incumbent    BestBd   Gap | It/Node Time

     0     0 68894.8998    0    -          - 68894.8998      -     -    0s
     0     0 458171.998    0  425          - 458171.998      -     -    0s
     0     0 627350.126    0  360          - 627350.126      -     -    1s
     0     0 627377.377    0  173          - 627377.377      -     -    1s
     0     0 627495.098    0  112          - 627495.098      -     -    1s
     0     0 627503.491    0  124          - 627503.491      -     -    1s
     0     0 627504.943    0  124          - 627504.943      -     -    1s
     0     2 627504.943    0  124          - 627504.943      -     -    2s
H  159   188                    627657.14977 627508.480  0.02%  31.2    3s
*  159   188              48    627657.14977 627508.480  0.02%  31.2    3s

Cutting planes:
  Gomory: 43
  Implied bound: 250
  MIR: 49
  Flow cover: 69
  RLT: 208

Explored 199 nodes (22685 simplex iterations) in 4.57 seconds (6.68 work units)
Thread count was 4 (of 128 available processors)

Solution count 2: 627657 627657 

Optimal solution found (tolerance 1.00e-03)
Warning: max constraint violation (2.5351e-07) exceeds tolerance
Best objective 6.276571497738e+05, best bound 6.275084796172e+05, gap 0.0237%
